NAME: tsp15_18
COMMENT: 15-tsp problem (Padberg/Rinaldi)
TYPE: TSP
DIMENSION: 15
EDGE_WEIGHT_TYPE : EUC_2D
NODE_COORD_SECTION
1 31 23
2 16 22
3 36 38
4 39 27
5 13 3
6 10 1
7 7 2
8 26 10
9 26 35
10 15 17
11 21 11
12 10 36
13 2 5
14 31 15
15 10 1
